data/CVRPLIB/Vrp-Set-XML100/instances/XML100_2231_01.vrp
NAME : XML100_2231_01
COMMENT : Generated by Queiroga, Sadykov, Uchoa, and Vidal (2021)
TYPE : CVRP
DIMENSION : 101
EDGE_WEIGHT_TYPE : EUC_2D
CAPACITY : 26
NODE_COORD_SECTION
1    500  500 
2    114  621 
3    33   140 
4    81   605 
5    194  683 
6    276  608 
7    22   649 
8    75   756 
9    238  544 
10   267  14  
11   179  641 
12   181  96  
13   282  581 
14   126  740 
15   153  785 
16   129  58  
17   235  642 
18   75   700 
19   23   725 
20   97   39  
21   34   526 
22   152  774 
23   126  649 
24   122  3   
25   180  139 
26   139  573 
27   152  611 
28   164  630 
29   370  521 
30   158  644 
31   140  598 
32   234  549 
33   113  700 
34   137  99  
35   188  693 
36   148  610 
37   303  100 
38   129  610 
39   114  96  
40   49   774 
41   189  93  
42   59   588 
43   196  753 
44   127  35  
45   218  774 
46   347  667 
47   175  55  
48   56   571 
49   181  616 
50   127  81  
51   135  620 
52   61   172 
53   146  473 
54   152  670 
55   166  676 
56   101  711 
57   48   629 
58   117  593 
59   64   571 
60   268  316 
61   115  48  
62   87   649 
63   164  578 
64   177  655 
65   3    729 
66   258  627 
67   120  643 
68   215  539 
69   151  569 
70   125  639 
71   96   651 
72   97   595 
73   73   595 
74   127  575 
75   70   644 
76   198  779 
77   95   730 
78   271  36  
79   318  42  
80   214  679 
81   175  679 
82   235  632 
83   88   601 
84   91   481 
85   95   72  
86   178  236 
87   305  107 
88   43   54  
89   66   739 
90   191  604 
91   127  43  
92   177  499 
93   52   578 
94   110  665 
95   120  608 
96   51   619 
97   155  539 
98   75   674 
99   114  679 
100  164  514 
101  205  607 
DEMAND_SECTION
1    0   
2    6   
3    5   
4    9   
5    6   
6    7   
7    8   
8    6   
9    7   
10   5   
11   10  
12   5   
13   9   
14   6   
15   10  
16   5   
17   5   
18   10  
19   6   
20   5   
21   8   
22   6   
23   6   
24   8   
25   5   
26   10  
27   10  
28   8   
29   9   
30   7   
31   7   
32   10  
33   10  
34   9   
35   5   
36   5   
37   6   
38   5   
39   5   
40   6   
41   5   
42   9   
43   9   
44   6   
45   10  
46   10  
47   5   
48   6   
49   6   
50   10  
51   5   
52   7   
53   8   
54   7   
55   6   
56   10  
57   7   
58   10  
59   9   
60   5   
61   10  
62   10  
63   10  
64   7   
65   9   
66   5   
67   6   
68   9   
69   8   
70   8   
71   9   
72   6   
73   7   
74   8   
75   10  
76   5   
77   9   
78   7   
79   5   
80   5   
81   9   
82   8   
83   10  
84   6   
85   7   
86   5   
87   6   
88   10  
89   8   
90   7   
91   9   
92   8   
93   7   
94   8   
95   7   
96   7   
97   9   
98   10  
99   8   
100  10  
101  9   
DEPOT_SECTION
1
-1
EOF
