data/CVRPLIB/Vrp-Set-XML100/solutions/XML100_2231_01.sol
Route #1: 68 73 25
Route #2: 93 98 32
Route #3: 8 31 67
Route #4: 53 55 76
Route #5: 62 89 100
Route #6: 72 3 82
Route #7: 58 92 41
Route #8: 69 1 94 37
Route #9: 27 29 10
Route #10: 83 20 47 71
Route #11: 28 12 5
Route #12: 91 99 52
Route #13: 36 78 9 46 40
Route #14: 54 80 4 79
Route #15: 96 57 30
Route #16: 33 38 2 51
Route #17: 88 39 7 13
Route #18: 90 60 84
Route #19: 34 21 14 75
Route #20: 18 64 17
Route #21: 22 97 61
Route #22: 59 85 24 11 86
Route #23: 35 26 48 65
Route #24: 95 74 70
Route #25: 63 42 44
Route #26: 77 23 43 15
Route #27: 45 16 81
Route #28: 66 6 56 50
Route #29: 49 19 87
Cost 26756
